experiments/cvc4_benchmarks/proof_after_expl/leon/bsearch-tree-goal16.smt2.log
20:16:34 [WARN] Collecting statistics
20:16:34 [WARN]  ex is: zero
20:16:34 [WARN]  ex is: (succ zero)
20:16:34 [WARN]  ex is: (succ (succ zero))
20:16:34 [WARN]  ex is: nil
20:16:34 [WARN]  ex is: (cons autovar_Nat_0 nil)
20:16:34 [WARN]  ex is: (cons autovar_Nat_1 (cons autovar_Nat_0 nil))
20:16:34 [WARN]  ex is: leaf
20:16:34 [WARN]  ex is: (node autovar_Nat_0 leaf leaf)
20:16:34 [WARN]  ex is: (node autovar_Nat_1 (node autovar_Nat_0 leaf leaf) (node autovar_Nat_0 leaf leaf))
20:16:34 [WARN] Running exploration without proof mode, but goals were given
20:16:34 [WARN] Proof mode: true
20:16:34 [WARN]  ex is: zero
20:16:34 [WARN]  ex is: (succ zero)
20:16:34 [WARN]  ex is: (succ (succ zero))
20:16:34 [WARN]  ex is: nil
20:16:34 [WARN]  ex is: (cons autovar_Nat_0 nil)
20:16:34 [WARN]  ex is: (cons autovar_Nat_1 (cons autovar_Nat_0 nil))
20:16:34 [WARN]  ex is: leaf
20:16:34 [WARN]  ex is: (node autovar_Nat_0 leaf leaf)
20:16:34 [WARN]  ex is: (node autovar_Nat_1 (node autovar_Nat_0 leaf leaf) (node autovar_Nat_0 leaf leaf))
20:16:34 [WARN] Running exploration without proof mode, but goals were given
20:16:34 [WARN] Proof mode: true
